30	100	100	100
26	86	89
41	86	93
9	78	71
29	71	66
5	93	80
12	66	73
34	84	85
46	81	73
8	83	69
24	83	72
12	95	87
5	87	98
12	97	83
35	87	66
13	89	74
6	72	79
41	67	94
1	91	85
1	74	74
48	67	75
33	85	91
40	98	71
1	81	81
21	87	90
43	81	75
34	98	86
33	73	77
19	89	73
42	91	75
49	95	85
